c CNF file generated from BLIF2CNF script.
c Original BLIF file was blif/newtpla1.blif
p cnf 5 43
1 -2 0
-1 -2 0
- -2 0
- -2 0
- -2 0
 -2 0
 -2 0
 -2 0
2 -1 1    - - -  0
-2 1 0
-1 -3 0
 -3 0
- -3 0
- -3 0
- -3 0
 -3 0
 -3 0
 -3 0
3 1 -    - - -  0
-3 1 0
-1 2 3  0
-1 -4 0
-1 -4 0
- -4 0
- -4 0
- -4 0
 -4 0
 -4 0
 -4 0
4 1 1    - - -  0
-4 1 0
1 -5 0
-1 -5 0
 -5 0
- -5 0
- -5 0
- -5 0
 -5 0
 -5 0
 -5 0
5 -1 1 -    - - -  0
-5 1 0
-1 4 5  0
